db/inputs/466729324320693123725334143441166712736.smt2
(set-logic QF_FP)
(declare-const x0 (_ FloatingPoint 8 24))
(declare-const x1 (_ FloatingPoint 8 24))
(declare-const x2 (_ FloatingPoint 8 24))
(declare-const x3 (_ FloatingPoint 8 24))
(declare-const x4 (_ FloatingPoint 8 24))
(declare-const x5 (_ FloatingPoint 8 24))
(declare-const x6 (_ FloatingPoint 8 24))
(declare-const x7 (_ FloatingPoint 8 24))
(declare-const x8 (_ FloatingPoint 8 24))
(declare-const x9 (_ FloatingPoint 8 24))
(declare-const x10 (_ FloatingPoint 8 24))
(declare-const x11 (_ FloatingPoint 8 24))
(declare-const x12 (_ FloatingPoint 8 24))
(declare-const x13 (_ FloatingPoint 8 24))
(assert (fp.geq (fp.mul RNE x11 x1) (fp.add RNE x12 x3)))
(assert (fp.leq (fp.sub RNE x0 x4) (fp.div RNE x3 x7)))
(assert (fp.leq (fp.neg x1) (fp.div RNE x10 x2)))
(assert (fp.lt (fp.mul RNE x2 x12) (fp.add RNE x4 x13)))
(assert (fp.lt (fp.sub RNE x5 x11) (fp.sub RNE x2 x12)))
(assert (fp.eq (fp.neg x6) (fp.add RNE x9 x4)))
(assert (fp.leq (fp.mul RNE x9 x7) (fp.sub RNE x1 x13)))
(assert (fp.gt (fp.add RNE x13 x13) (fp.sub RNE x8 x9)))
(check-sat)
