db/data/466729324320693123725334143441166712736.z3.out
sat
-------------------
12.029593536
